NAME: tsp20-4
TYPE: TSP
DIMENSION: 20
EDGE_WEIGHT_TYPE: EUC_2D
NODE_COORD_SECTION
0 17 3
1 98 74
2 7 69
3 2 49
4 50 57
5 70 23
6 70 7
7 23 66
8 32 97
9 78 15
10 100 90
11 84 15
12 62 25
13 83 65
14 50 96
15 73 41
16 49 52
17 21 55
18 14 93
19 46 86
EOF